1 1 -2 0
1 -1 -3 0
1 -1 -4 0
1 1 -5 0
1 -2 -6 0
1 -7 -8 0
1 -7 9 0
1 -7 10 0
1 11 12 0
1 -11 -3 0
1 11 -4 0
1 -11 13 0
1 11 7 0
1 -11 10 0
1 4 -14 0
1 4 15 0
1 4 16 0
1 -4 -17 0
1 -4 -1 0
1 4 -10 0
1 10 18 0
1 -10 -14 0
1 -10 -19 0
1 -10 15 0
1 10 -11 0
1 10 -2 0
1 10 4 0
1 10 16 0
1 10 -20 0
1 3 2 0
1 3 16 0
1 -3 -21 0
1 -3 22 0
1 -3 -7 0
1 -3 23 0
1 23 -24 0
1 -23 -16 0
1 -23 -21 0
1 23 -7 0
1 -17 -8 0
1 -17 -13 0
1 17 10 0
1 15 25 0
1 -15 -17 0
1 15 10 0
1 -20 -26 0
1 20 -8 0
1 -20 19 0
1 20 -27 0
1 -19 -28 0
1 19 9 0
1 -19 13 0
1 19 20 0
1 19 29 0
1 -13 -19 0
1 13 15 0
1 -13 11 0
1 -13 30 0
1 -13 -20 0
1 13 17 0
1 -13 -7 0
1 -8 19 0
1 8 -31 0
1 8 30 0
1 -8 -17 0
1 -9 -32 0
1 9 -17 0
1 -26 14 0
1 -26 9 0
1 -26 33 0
1 26 16 0
1 -26 20 0
1 -26 7 0
1 -30 27 0
1 -34 -8 0
1 -34 -13 0
1 -34 -29 0
1 34 -27 0
1 31 35 0
1 31 -28 0
1 -31 13 0
1 31 -27 0
1 35 36 0
1 -35 -37 0
1 35 28 0
1 -35 -13 0
1 35 29 0
1 -27 -31 0
1 27 20 0
1 27 38 0
1 28 39 0
1 -28 -30 0
1 28 -40 0
1 29 -41 0
1 29 42 0
1 29 31 0
1 -29 30 0
1 -29 -40 0
1 37 -34 0
1 37 32 0
1 37 20 0
1 -37 43 0
1 5 -44 0
1 5 45 0
1 -6 -46 0
1 -6 2 0
1 6 5 0
1 47 -12 0
1 47 48 0
1 12 46 0
1 12 -11 0
1 12 -45 0
1 -46 49 0
1 -46 25 0
1 46 50 0
1 46 -51 0
1 -46 -5 0
1 50 46 0
1 -50 52 0
1 -50 -24 0
1 -50 12 0
1 50 51 0
1 -50 22 0
1 -50 47 0
1 50 -5 0
1 44 -53 0
1 -44 54 0
1 45 44 0
1 45 -52 0
1 -45 -55 0
1 45 6 0
1 45 -51 0
1 -45 47 0
1 -22 -25 0
1 22 56 0
1 -22 -3 0
1 22 50 0
1 -22 -54 0
1 22 23 0
1 -25 -57 0
1 -25 -56 0
1 25 48 0
1 25 58 0
1 25 -22 0
1 25 -23 0
1 -21 -57 0
1 21 -3 0
1 21 50 0
1 -21 -48 0
1 -21 -58 0
1 -21 59 0
1 -21 60 0
1 -21 23 0
1 24 46 0
1 -24 50 0
1 24 48 0
1 -56 61 0
1 56 14 0
1 -56 -25 0
1 -56 33 0
1 56 16 0
1 56 47 0
1 58 -14 0
1 -58 25 0
1 -58 -56 0
1 58 12 0
1 -58 33 0
1 58 -22 0
1 -58 -47 0
1 -57 25 0
1 57 -12 0
1 -57 62 0
1 57 -63 0
1 57 48 0
1 48 -52 0
1 48 24 0
1 48 -62 0
1 48 51 0
1 48 21 0
1 -48 -22 0
1 -48 -47 0
1 -16 26 0
1 16 -14 0
1 -16 -64 0
1 -16 3 0
1 16 4 0
1 16 51 0
1 -16 58 0
1 -16 23 0
1 16 10 0
1 14 26 0
1 14 34 0
1 14 -52 0
1 -14 65 0
1 -14 3 0
1 14 -4 0
1 -14 9 0
1 -14 -66 0
1 -14 -10 0
1 33 18 0
1 -33 -56 0
1 -33 -65 0
1 33 -67 0
1 -33 9 0
1 33 -31 0
1 -33 -63 0
1 -33 58 0
1 33 66 0
1 33 68 0
1 -36 -35 0
1 -36 -69 0
1 -36 65 0
1 -36 9 0
1 36 -58 0
1 36 66 0
1 -36 -60 0
1 -65 24 0
1 -65 70 0
1 65 32 0
1 65 21 0
1 -65 60 0
1 -65 71 0
1 -65 -43 0
1 -65 72 0
1 -60 -65 0
1 60 32 0
1 -60 73 0
1 -60 -16 0
1 60 21 0
1 60 71 0
1 -60 -43 0
1 64 61 0
1 -64 24 0
1 64 74 0
1 64 -62 0
1 64 -16 0
1 64 21 0
1 -64 -66 0
1 66 -61 0
1 66 75 0
1 66 -76 0
1 -32 65 0
1 -32 9 0
1 32 29 0
1 32 -72 0
1 72 61 0
1 -72 -26 0
1 72 -67 0
1 -72 -68 0
1 -42 -77 0
1 42 -78 0
1 42 -79 0
1 42 67 0
1 42 -80 0
1 43 77 0
1 43 37 0
1 -43 81 0
1 -43 -60 0
1 -67 18 0
1 -67 -82 0
1 67 83 0
1 -67 -33 0
1 67 84 0
1 67 40 0
1 -67 72 0
1 -18 82 0
1 -18 42 0
1 18 32 0
1 18 67 0
1 18 33 0
1 79 43 0
1 68 -36 0
1 -68 -85 0
1 -68 -33 0
1 68 -23 0
1 -68 86 0
1 -68 87 0
1 68 -43 0
1 41 37 0
1 -41 67 0
1 -41 -80 0
1 41 27 0
1 -40 -28 0
1 -40 -80 0
1 40 -81 0
1 82 -88 0
1 -82 -89 0
1 82 39 0
1 -82 -85 0
1 -82 81 0
1 82 90 0
1 84 -77 0
1 -84 -39 0
1 -84 82 0
1 -84 67 0
1 84 -81 0
1 84 90 0
1 -81 -88 0
1 -81 91 0
1 -81 92 0
1 81 -42 0
1 -81 -13 0
1 -81 43 0
1 -88 91 0
1 88 92 0
1 -80 93 0
1 -80 -94 0
1 80 -42 0
1 -80 -43 0
1 77 -26 0
1 77 -41 0
1 -77 -95 0
1 -77 86 0
1 77 -40 0
1 77 -43 0
1 92 94 0
1 -92 90 0
1 92 -38 0
1 -96 88 0
1 96 92 0
1 96 -90 0
1 96 -86 0
1 91 -89 0
1 -91 -39 0
1 -91 -81 0
1 -91 -38 0
1 97 91 0
1 -97 89 0
1 -97 -39 0
1 97 -81 0
1 -97 90 0
1 97 -38 0
1 38 -92 0
1 38 -96 0
1 -39 -91 0
1 39 -98 0
1 39 -99 0
1 -39 96 0
1 -90 -100 0
1 -90 101 0
1 90 91 0
1 90 89 0
1 90 -97 0
1 90 96 0
1 90 -102 0
1 89 -101 0
1 -89 103 0
1 89 -90 0
1 -89 -97 0
1 104 105 0
1 104 -106 0
1 -104 -107 0
1 104 -5 0
1 -108 -109 0
1 -108 -110 0
1 108 -104 0
1 111 112 0
1 111 113 0
1 -111 47 0
1 -112 -105 0
1 112 -113 0
1 112 -114 0
1 107 55 0
1 107 -105 0
1 -107 112 0
1 -107 108 0
1 107 115 0
1 107 -59 0
1 107 -116 0
1 -105 55 0
1 -105 117 0
1 -105 108 0
1 -105 -54 0
1 106 -112 0
1 -106 -115 0
1 -109 118 0
1 -109 119 0
1 109 108 0
1 -109 120 0
1 109 -121 0
1 109 -111 0
1 54 -105 0
1 -54 53 0
1 -54 -114 0
1 53 25 0
1 53 119 0
1 -53 54 0
1 -53 -122 0
1 59 -123 0
1 59 55 0
1 59 -113 0
1 59 124 0
1 59 -125 0
1 59 -45 0
1 55 -123 0
1 55 44 0
1 -55 -107 0
1 -55 -118 0
1 -55 -113 0
1 55 124 0
1 -55 59 0
1 55 -122 0
1 55 -126 0
1 122 -127 0
1 122 -52 0
1 -122 112 0
1 122 128 0
1 122 51 0
1 113 55 0
1 113 53 0
1 -113 -129 0
1 -113 -128 0
1 113 122 0
1 113 -59 0
1 -113 -54 0
1 114 -130 0
1 -114 131 0
1 -114 54 0
1 114 -111 0
1 131 -130 0
1 -131 132 0
1 -131 55 0
1 131 -53 0
1 -131 115 0
1 -131 59 0
1 -51 -123 0
1 51 -57 0
1 51 -125 0
1 51 -45 0
1 -51 126 0
1 -52 -14 0
1 52 -57 0
1 -52 -50 0
1 52 -48 0
1 63 -69 0
1 -63 -133 0
1 -63 57 0
1 -63 125 0
1 63 134 0
1 -63 48 0
1 63 135 0
1 63 -126 0
1 -69 130 0
1 69 49 0
1 69 -134 0
1 69 -136 0
1 69 -126 0
1 -123 -61 0
1 123 -69 0
1 123 -52 0
1 -123 55 0
1 -123 -137 0
1 -123 78 0
1 123 -125 0
1 -123 59 0
1 123 138 0
1 123 139 0
1 125 61 0
1 -125 -69 0
1 125 137 0
1 125 140 0
1 -125 51 0
1 -126 -127 0
1 -126 -55 0
1 -126 124 0
1 -126 -137 0
1 126 51 0
1 -126 -59 0
1 -126 -138 0
1 -126 141 0
1 124 52 0
1 124 -55 0
1 124 -137 0
1 -124 51 0
1 124 -59 0
1 124 138 0
1 -62 61 0
1 62 -123 0
1 -62 49 0
1 62 64 0
1 -61 -133 0
1 61 -56 0
1 -61 -125 0
1 61 -62 0
1 61 66 0
1 -78 -49 0
1 -78 -42 0
1 78 125 0
1 -78 -142 0
1 78 -136 0
1 78 143 0
1 -78 66 0
1 -78 -139 0
1 139 133 0
1 -139 144 0
1 139 64 0
1 139 143 0
1 -139 145 0
1 139 -141 0
1 49 69 0
1 -49 146 0
1 -49 -85 0
1 49 147 0
1 49 -87 0
1 136 61 0
1 -136 -75 0
1 136 62 0
1 -136 -63 0
1 -133 44 0
1 133 146 0
1 133 137 0
1 -133 78 0
1 -134 61 0
1 -134 -148 0
1 134 -78 0
1 134 62 0
1 -134 -149 0
1 -134 147 0
1 75 -150 0
1 75 41 0
1 -75 137 0
1 75 143 0
1 75 -71 0
1 -75 -68 0
1 -71 -49 0
1 -71 -144 0
1 -71 -75 0
1 -71 -145 0
1 71 66 0
1 -71 -68 0
1 -85 -49 0
1 85 -76 0
1 85 -150 0
1 85 82 0
1 85 -87 0
1 -85 73 0
1 87 -49 0
1 87 -150 0
1 87 -70 0
1 87 -143 0
1 -87 -84 0
1 87 68 0
1 144 145 0
1 144 85 0
1 144 -75 0
1 -144 -78 0
1 144 71 0
1 -145 -93 0
1 -145 75 0
1 -145 86 0
1 145 139 0
1 150 57 0
1 150 -146 0
1 -150 143 0
1 150 -151 0
1 -150 -147 0
1 -143 152 0
1 143 153 0
1 -143 -146 0
1 -143 75 0
1 143 78 0
1 -143 -154 0
1 -143 48 0
1 -143 87 0
1 -94 18 0
1 -94 -145 0
1 94 -146 0
1 -94 -70 0
1 94 80 0
1 94 86 0
1 -94 -76 0
1 94 -73 0
1 -86 -144 0
1 -86 79 0
1 86 80 0
1 86 145 0
1 86 68 0
1 -93 -155 0
1 -93 -91 0
1 -93 -153 0
1 -93 74 0
1 93 80 0
1 -93 -145 0
1 -95 156 0
1 -95 97 0
1 -95 -151 0
1 -95 73 0
1 -70 100 0
1 -70 85 0
1 -70 157 0
1 -70 158 0
1 -70 -103 0
1 -70 -95 0
1 -70 -87 0
1 73 -159 0
1 73 -100 0
1 73 -94 0
1 -73 -85 0
1 73 -103 0
1 -73 160 0
1 -73 -87 0
1 74 -161 0
1 -74 -76 0
1 74 94 0
1 -74 -162 0
1 -74 95 0
1 -74 87 0
1 -76 -85 0
1 76 -158 0
1 76 162 0
1 -76 -154 0
1 -76 -86 0
1 -101 -155 0
1 -101 89 0
1 101 -70 0
1 101 156 0
1 -101 83 0
1 101 81 0
1 160 -155 0
1 160 77 0
1 -160 -101 0
1 -160 -89 0
1 160 -83 0
1 160 -154 0
1 160 -81 0
1 -160 -73 0
1 -100 155 0
1 -100 -163 0
1 100 164 0
1 -100 89 0
1 100 70 0
1 -100 -165 0
1 100 90 0
1 -103 -83 0
1 -103 -90 0
1 103 -166 0
1 -83 155 0
1 83 100 0
1 83 -101 0
1 -83 93 0
1 83 -167 0
1 -83 168 0
1 83 -99 0
1 -155 -101 0
1 155 93 0
1 -155 -167 0
1 -155 168 0
1 155 -169 0
1 155 -170 0
1 156 -159 0
1 -156 101 0
1 156 -158 0
1 -156 171 0
1 156 -160 0
1 156 166 0
1 -166 -101 0
1 -166 -93 0
1 -166 -156 0
1 166 -160 0
1 166 169 0
1 -172 39 0
1 172 173 0
1 -99 -155 0
1 -99 164 0
1 -99 -39 0
1 99 158 0
1 -99 -83 0
1 99 -165 0
1 99 90 0
1 -99 38 0
1 170 155 0
1 -170 -174 0
1 -170 165 0
1 -170 -102 0
1 168 98 0
1 -168 -165 0
1 168 -175 0
1 165 -176 0
1 -165 -177 0
1 165 -81 0
1 -164 -172 0
1 -164 -178 0
1 -164 176 0
1 164 -99 0
1 164 179 0
1 164 180 0
1 -164 -181 0
1 164 170 0
1 -173 172 0
1 -173 100 0
1 -173 182 0
1 -173 -169 0
1 -163 -172 0
1 -163 167 0
1 163 168 0
1 163 99 0
1 -163 -179 0
1 163 -182 0
1 181 164 0
1 181 98 0
1 -181 -102 0
1 -177 98 0
1 -180 -164 0
1 -180 98 0
1 -180 -102 0
1 180 175 0
1 176 165 0
1 -175 -183 0
1 175 -176 0
1 175 -98 0
1 -175 -38 0
1 -175 -180 0
1 175 184 0
1 -175 170 0
1 98 175 0
1 98 176 0
1 -98 -185 0
1 98 -177 0
1 -98 -168 0
1 98 180 0
1 102 183 0
1 -102 -177 0
1 -102 186 0
1 102 -179 0
1 102 187 0
1 102 180 0
1 -174 -176 0
1 174 -177 0
1 174 186 0
1 174 -179 0
1 -188 189 0
1 188 190 0
1 188 104 0
1 110 -191 0
1 -110 -192 0
1 -193 -190 0
1 193 194 0
1 195 196 0
1 -195 -197 0
1 195 -194 0
1 -195 191 0
1 195 192 0
1 -190 -198 0
1 -190 -119 0
1 190 -195 0
1 190 199 0
1 -190 -193 0
1 192 200 0
1 -196 191 0
1 -196 201 0
1 -191 -198 0
1 -191 -202 0
1 191 201 0
1 -121 109 0
1 -121 119 0
1 -121 190 0
1 121 194 0
1 121 106 0
1 121 -201 0
1 -121 203 0
1 -119 109 0
1 -119 53 0
1 -119 -204 0
1 119 -190 0
1 -119 -106 0
1 -119 -203 0
1 120 205 0
1 120 206 0
1 120 -109 0
1 -120 -197 0
1 120 -207 0
1 120 192 0
1 -118 -205 0
1 -118 206 0
1 -118 -55 0
1 -118 197 0
1 118 -207 0
1 -118 -208 0
1 -118 120 0
1 118 209 0
1 194 -130 0
1 -194 -132 0
1 -194 -119 0
1 -194 -195 0
1 -194 -210 0
1 194 -120 0
1 -203 211 0
1 203 -212 0
1 -203 130 0
1 203 -118 0
1 -203 -121 0
1 197 -213 0
1 -197 118 0
1 -197 -214 0
1 209 -212 0
1 209 195 0
1 209 -197 0
1 -209 -210 0
1 209 214 0
1 -209 -120 0
1 209 -121 0
1 -209 215 0
1 115 -132 0
1 115 131 0
1 -115 51 0
1 -115 -214 0
1 115 -114 0
1 -115 -203 0
1 132 -206 0
1 132 52 0
1 132 109 0
1 132 115 0
1 132 114 0
1 -132 203 0
1 -135 -205 0
1 -135 -206 0
1 135 -216 0
1 135 -117 0
1 135 -131 0
1 -135 -194 0
1 -135 -207 0
1 -135 208 0
1 -135 -217 0
1 135 116 0
1 135 114 0
1 130 -69 0
1 -130 216 0
1 -130 -207 0
1 -130 208 0
1 130 135 0
1 130 203 0
1 -208 127 0
1 208 -130 0
1 208 -218 0
1 208 -219 0
1 208 -115 0
1 208 -220 0
1 206 142 0
1 -206 128 0
1 206 208 0
1 -206 135 0
1 -206 -115 0
1 -206 141 0
1 207 130 0
1 -207 132 0
1 207 -210 0
1 -205 221 0
1 -205 -222 0
1 -205 -130 0
1 205 -132 0
1 205 118 0
1 -205 218 0
1 -205 223 0
1 -128 117 0
1 128 113 0
1 -128 62 0
1 -127 212 0
1 -127 131 0
1 127 -208 0
1 127 -116 0
1 142 -206 0
1 142 129 0
1 -142 -124 0
1 -142 78 0
1 142 -224 0
1 -142 126 0
1 -141 142 0
1 141 116 0
1 -141 -225 0
1 141 -224 0
1 -141 -126 0
1 116 -127 0
1 116 137 0
1 116 128 0
1 116 135 0
1 116 226 0
1 -116 -138 0
1 -116 -141 0
1 -117 227 0
1 -117 137 0
1 -117 -128 0
1 117 116 0
1 -117 -138 0
1 228 -127 0
1 228 -229 0
1 -228 226 0
1 228 220 0
1 -228 -141 0
1 -216 -109 0
1 216 230 0
1 -216 -128 0
1 216 -228 0
1 -216 226 0
1 216 -141 0
1 -137 -117 0
1 137 -124 0
1 -137 -218 0
1 137 125 0
1 -137 134 0
1 -137 -138 0
1 -138 123 0
1 138 -117 0
1 -138 -124 0
1 -138 137 0
1 138 -225 0
1 148 -231 0
1 148 -232 0
1 148 -233 0
1 -148 134 0
1 -148 -116 0
1 -148 -224 0
1 234 -231 0
1 -234 -133 0
1 234 140 0
1 -234 -235 0
1 -224 146 0
1 224 -148 0
1 -224 236 0
1 224 151 0
1 224 138 0
1 -224 -141 0
1 129 -237 0
1 129 -113 0
1 -129 -137 0
1 -129 151 0
1 -129 147 0
1 129 -224 0
1 -129 138 0
1 225 -238 0
1 225 114 0
1 225 138 0
1 232 229 0
1 232 137 0
1 -232 142 0
1 -232 141 0
1 146 231 0
1 -146 -133 0
1 -146 -94 0
1 -146 233 0
1 146 -140 0
1 146 134 0
1 146 136 0
1 146 -224 0
1 146 235 0
1 -147 -49 0
1 147 150 0
1 147 -134 0
1 -147 -226 0
1 -147 -224 0
1 147 235 0
1 -153 239 0
1 -153 -238 0
1 153 -129 0
1 -153 151 0
1 -153 235 0
1 151 -231 0
1 -151 -150 0
1 -151 129 0
1 151 -233 0
1 151 -149 0
1 151 -240 0
1 -151 -95 0
1 -151 -235 0
1 231 -162 0
1 -231 151 0
1 140 -241 0
1 -140 161 0
1 -140 153 0
1 140 146 0
1 -140 -148 0
1 140 -242 0
1 -140 162 0
1 140 151 0
1 -140 234 0
1 -235 -243 0
1 -235 -153 0
1 235 -146 0
1 -233 -244 0
1 -233 237 0
1 -233 -153 0
1 233 -146 0
1 -233 242 0
1 -233 236 0
1 -233 -151 0
1 -233 -147 0
1 161 -231 0
1 -161 -101 0
1 161 245 0
1 -161 140 0
1 -161 149 0
1 161 154 0
1 -161 -240 0
1 154 239 0
1 -154 245 0
1 -154 144 0
1 -154 140 0
1 154 -149 0
1 241 100 0
1 -241 -243 0
1 -241 239 0
1 241 -74 0
1 -241 -152 0
1 -241 76 0
1 -162 231 0
1 162 -241 0
1 162 246 0
1 -162 -74 0
1 -162 -103 0
1 162 247 0
1 162 -149 0
1 245 -161 0
1 -245 153 0
1 -245 158 0
1 -245 -162 0
1 245 240 0
1 -240 241 0
1 240 245 0
1 -240 -153 0
1 240 248 0
1 240 -162 0
1 240 154 0
1 -240 -136 0
1 -240 -151 0
1 -239 -241 0
1 239 -133 0
1 239 -161 0
1 239 153 0
1 239 -162 0
1 -239 -154 0
1 -149 241 0
1 -149 153 0
1 -149 248 0
1 149 162 0
1 -149 134 0
1 -149 154 0
1 -149 -249 0
1 149 151 0
1 -159 158 0
1 -159 -240 0
1 -159 -166 0
1 -158 159 0
1 158 -245 0
1 158 -250 0
1 158 74 0
1 158 -156 0
1 158 242 0
1 -158 251 0
1 252 253 0
1 252 -156 0
1 -252 -166 0
1 -254 245 0
1 254 246 0
1 254 -250 0
1 254 252 0
1 254 -168 0
1 254 -255 0
1 254 166 0
1 250 241 0
1 250 -251 0
1 250 -256 0
1 -250 182 0
1 -251 159 0
1 -251 257 0
1 251 162 0
1 251 145 0
1 -251 -258 0
1 251 -182 0
1 251 252 0
1 -246 241 0
1 246 150 0
1 -246 -254 0
1 246 158 0
1 246 252 0
1 -152 -259 0
1 -152 -254 0
1 -152 162 0
1 -152 260 0
1 -152 261 0
1 -169 -155 0
1 -169 -163 0
1 169 -250 0
1 169 262 0
1 -169 -156 0
1 -169 -251 0
1 -169 -263 0
1 169 -166 0
1 -167 -155 0
1 167 -163 0
1 167 -262 0
1 167 -157 0
1 -167 156 0
1 -167 83 0
1 -167 -169 0
1 182 264 0
1 182 -265 0
1 -182 250 0
1 182 -157 0
1 182 -171 0
1 -182 -266 0
1 -182 -261 0
1 267 -264 0
1 -267 -265 0
1 -267 163 0
1 267 176 0
1 -267 -262 0
1 -267 -263 0
1 -267 171 0
1 -267 266 0
1 267 173 0
1 -157 268 0
1 -157 -167 0
1 -157 -269 0
1 157 -179 0
1 -157 182 0
1 157 252 0
1 -270 268 0
1 270 -271 0
1 270 267 0
1 270 167 0
1 270 -254 0
1 -270 157 0
1 270 -179 0
1 -270 272 0
1 -262 -268 0
1 -262 267 0
1 -262 256 0
1 -262 182 0
1 -262 169 0
1 -263 273 0
1 -263 267 0
1 -263 -167 0
1 263 262 0
1 -263 254 0
1 -263 256 0
1 263 -76 0
1 -263 -182 0
1 179 -265 0
1 -179 -164 0
1 179 -174 0
1 -179 -173 0
1 -178 -164 0
1 178 157 0
1 -178 266 0
1 178 -165 0
1 -178 270 0
1 274 -275 0
1 -274 266 0
1 -274 276 0
1 274 277 0
1 274 -270 0
1 271 264 0
1 -271 174 0
1 271 278 0
1 271 -266 0
1 -271 -274 0
1 271 102 0
1 266 183 0
1 -266 178 0
1 -266 -279 0
1 -266 280 0
1 -266 -179 0
1 -266 182 0
1 -265 183 0
1 -265 -178 0
1 -265 -267 0
1 -265 -279 0
1 -265 274 0
1 -265 179 0
1 171 264 0
1 -171 -178 0
1 -171 -279 0
1 -171 -281 0
1 171 -274 0
1 -171 -179 0
1 -264 282 0
1 264 -178 0
1 264 171 0
1 264 -179 0
1 264 182 0
1 -186 -98 0
1 -186 -266 0
1 -183 -265 0
1 183 283 0
1 -183 -278 0
1 -183 -266 0
1 183 186 0
1 -183 277 0
1 -284 -285 0
1 284 -283 0
1 -284 278 0
1 -284 286 0
1 -284 -281 0
1 284 -266 0
1 -284 276 0
1 -284 187 0
1 285 -287 0
1 -285 283 0
1 285 286 0
1 -285 284 0
1 285 277 0
1 -277 285 0
1 277 183 0
1 277 -278 0
1 -277 -288 0
1 277 284 0
1 -277 -186 0
1 -277 -274 0
1 277 -289 0
1 278 -285 0
1 278 -183 0
1 -278 271 0
1 -278 290 0
1 278 -284 0
1 278 -277 0
1 -278 291 0
1 -276 283 0
1 276 -292 0
1 276 186 0
1 276 293 0
1 283 -294 0
1 -283 -295 0
1 283 -292 0
1 -283 279 0
1 -283 274 0
1 -283 -296 0
1 -283 -297 0
1 298 278 0
1 -298 -279 0
1 298 -277 0
1 298 187 0
1 -289 185 0
1 -290 286 0
1 291 277 0
1 291 -187 0
1 -184 285 0
1 -184 -299 0
1 184 300 0
1 185 -290 0
1 185 -284 0
1 -185 -300 0
1 187 -285 0
1 187 299 0
1 187 301 0
1 187 -284 0
1 -187 -300 0
1 187 302 0
1 187 -296 0
1 -286 285 0
1 286 174 0
1 286 -299 0
1 286 -301 0
1 286 290 0
1 286 300 0
1 -286 -187 0
1 286 291 0
1 189 -303 0
1 -303 189 0
1 -303 -304 0
1 -303 -305 0
1 -303 -110 0
1 303 306 0
1 -307 -304 0
1 -307 308 0
1 -309 -304 0
1 -309 -310 0
1 -309 -311 0
1 309 312 0
1 309 308 0
1 -309 313 0
1 304 -303 0
1 304 306 0
1 306 303 0
1 -306 -314 0
1 -306 201 0
1 306 -307 0
1 312 -189 0
1 312 -309 0
1 -312 305 0
1 -312 -307 0
1 -305 189 0
1 -305 -315 0
1 305 303 0
1 201 310 0
1 -201 196 0
1 201 -308 0
1 -201 -313 0
1 -204 304 0
1 204 310 0
1 204 311 0
1 204 196 0
1 204 191 0
1 -316 -317 0
1 -316 191 0
1 -316 308 0
1 -316 318 0
1 319 -304 0
1 319 310 0
1 319 320 0
1 -319 -196 0
1 319 -316 0
1 -311 -213 0
1 -311 -321 0
1 -311 -198 0
1 311 -309 0
1 311 217 0
1 -311 -214 0
1 -311 307 0
1 313 311 0
1 313 198 0
1 -313 319 0
1 313 -204 0
1 -313 309 0
1 -313 322 0
1 313 201 0
1 310 -323 0
1 -310 319 0
1 -310 -324 0
1 -310 -316 0
1 310 201 0
1 -310 -307 0
1 -308 310 0
1 308 204 0
1 -308 324 0
1 -308 201 0
1 308 -307 0
1 -214 311 0
1 -214 -317 0
1 -214 -198 0
1 214 320 0
1 -214 196 0
1 -214 -190 0
1 214 -197 0
1 214 313 0
1 214 325 0
1 214 -209 0
1 -198 317 0
1 198 196 0
1 -198 190 0
1 198 -313 0
1 -198 191 0
1 -217 -311 0
1 217 -320 0
1 -217 -326 0
1 217 325 0
1 -213 -320 0
1 -213 326 0
1 213 -199 0
1 213 -313 0
1 -213 -200 0
1 320 -221 0
1 320 -198 0
1 320 217 0
1 318 212 0
1 -318 327 0
1 318 -328 0
1 317 -329 0
1 317 330 0
1 -317 213 0
1 -317 -198 0
1 -317 -319 0
1 -317 331 0
1 -317 324 0
1 317 217 0
1 325 329 0
1 -325 324 0
1 -325 -214 0
1 325 316 0
1 -210 -205 0
1 -210 320 0
1 210 326 0
1 -210 -194 0
1 -210 -209 0
1 210 203 0
1 212 127 0
1 -212 205 0
1 -212 330 0
1 212 -320 0
1 212 -197 0
1 -212 194 0
1 -212 207 0
1 -212 202 0
1 212 209 0
1 -223 -205 0
1 -223 320 0
1 -223 326 0
1 -223 -332 0
1 223 -333 0
1 -223 334 0
1 223 202 0
1 221 211 0
1 -221 329 0
1 221 -205 0
1 -221 326 0
1 -221 207 0
1 -221 333 0
1 221 318 0
1 221 -202 0
1 -221 -215 0
1 199 -212 0
1 -199 213 0
1 -199 335 0
1 199 -190 0
1 -199 336 0
1 -199 -210 0
1 199 217 0
1 199 337 0
1 199 -338 0
1 -199 -220 0
1 199 200 0
1 200 212 0
1 -200 -339 0
1 -200 -223 0
1 -200 210 0
1 -200 217 0
1 200 192 0
1 200 -340 0
1 200 220 0
1 -326 -223 0
1 326 217 0
1 326 -202 0
1 326 -341 0
1 202 335 0
1 202 331 0
1 -202 -337 0
1 202 -328 0
1 -218 205 0
1 -218 -215 0
1 218 137 0
1 -218 332 0
1 -218 -331 0
1 -218 333 0
1 -218 208 0
1 218 228 0
1 220 -199 0
1 -220 218 0
1 -220 -207 0
1 220 -208 0
1 220 -200 0
1 220 138 0
1 220 215 0
1 -339 -211 0
1 339 342 0
1 -339 148 0
1 339 199 0
1 339 219 0
1 -339 228 0
1 339 -215 0
1 338 222 0
1 -338 -216 0
1 338 -199 0
1 -338 332 0
1 338 -200 0
1 -333 221 0
1 -333 238 0
1 333 -194 0
1 -333 343 0
1 211 -221 0
1 -211 229 0
1 -211 218 0
1 332 -215 0
1 -332 -344 0
1 -332 -338 0
1 215 221 0
1 215 345 0
1 215 346 0
1 215 220 0
1 -229 211 0
1 229 -146 0
1 229 232 0
1 229 333 0
1 229 347 0
1 -229 226 0
1 229 -225 0
1 -226 -342 0
1 -226 232 0
1 226 337 0
1 238 -211 0
1 -238 222 0
1 -238 -342 0
1 238 348 0
1 238 219 0
1 238 -343 0
1 -238 349 0
1 238 225 0
1 -343 211 0
1 -343 230 0
1 343 -238 0
1 -343 227 0
1 343 333 0
1 343 347 0
1 -343 -348 0
1 -343 -349 0
1 343 225 0
1 -219 -243 0
1 219 -237 0
1 219 -339 0
1 219 350 0
1 -219 -208 0
1 342 243 0
1 -342 206 0
1 -342 351 0
1 -342 -238 0
1 -342 229 0
1 342 -339 0
1 -342 -236 0
1 342 219 0
1 -342 226 0
1 342 -338 0
1 347 352 0
1 347 -238 0
1 347 -229 0
1 -347 -339 0
1 347 353 0
1 347 -343 0
1 347 -226 0
1 -222 -354 0
1 222 -352 0
1 222 229 0
1 222 355 0
1 -222 226 0
1 -237 161 0
1 -237 -356 0
1 237 227 0
1 237 219 0
1 -237 -224 0
1 -236 230 0
1 -236 129 0
1 236 -225 0
1 -243 227 0
1 -243 233 0
1 -243 247 0
1 243 349 0
1 243 -357 0
1 -247 -230 0
1 247 -227 0
1 -247 -358 0
1 247 -219 0
1 -247 235 0
1 349 244 0
1 349 237 0
1 -349 359 0
1 -349 -247 0
1 -349 -360 0
1 227 237 0
1 227 238 0
1 -227 -361 0
1 -348 -238 0
1 348 350 0
1 348 247 0
1 348 -360 0
1 -230 -362 0
1 -230 -237 0
1 -230 -216 0
1 -230 238 0
1 230 -363 0
1 230 343 0
1 244 231 0
1 244 -364 0
1 244 -149 0
1 -244 349 0
1 244 235 0
1 242 358 0
1 242 233 0
1 -242 -158 0
1 242 -149 0
1 -242 -349 0
1 242 365 0
1 253 -239 0
1 253 255 0
1 253 -366 0
1 -253 357 0
1 255 358 0
1 255 -366 0
1 255 -363 0
1 -255 -365 0
1 357 -243 0
1 357 259 0
1 357 -248 0
1 357 358 0
1 357 367 0
1 -358 -368 0
1 -358 259 0
1 -358 -129 0
1 358 -248 0
1 -358 255 0
1 358 -242 0
1 -358 -247 0
1 -358 -369 0
1 365 253 0
1 365 -368 0
1 365 370 0
1 365 -255 0
1 -365 -242 0
1 365 -360 0
1 364 232 0
1 364 -371 0
1 -364 359 0
1 -364 -255 0
1 364 242 0
1 -364 369 0
1 -364 365 0
1 -364 372 0
1 -248 -245 0
1 -248 -358 0
1 -248 -359 0
1 248 -240 0
1 248 152 0
1 -261 259 0
1 261 182 0
1 259 373 0
1 259 -246 0
1 259 370 0
1 -259 -249 0
1 259 -374 0
1 259 152 0
1 -259 -261 0
1 375 -376 0
1 375 -273 0
1 -375 -259 0
1 -375 -248 0
1 375 -377 0
1 375 275 0
1 -375 -261 0
1 -378 -376 0
1 -378 -255 0
1 -373 -379 0
1 -373 368 0
1 373 259 0
1 373 248 0
1 -373 -380 0
1 373 261 0
1 -373 -235 0
1 366 -253 0
1 366 368 0
1 366 -255 0
1 -366 381 0
1 -366 -377 0
1 366 -369 0
1 256 -382 0
1 -256 -383 0
1 256 246 0
1 256 250 0
1 -256 -378 0
1 -256 374 0
1 256 -179 0
1 -256 -251 0
1 -256 -369 0
1 -256 -263 0
1 -257 -375 0
1 257 251 0
1 257 -178 0
1 257 -368 0
1 -257 250 0
1 -257 -262 0
1 -257 249 0
1 -257 152 0
1 -257 -263 0
1 275 273 0
1 275 -378 0
1 275 -380 0
1 275 -260 0
1 273 -375 0
1 -273 384 0
1 273 385 0
1 -273 262 0
1 273 -378 0
1 -273 374 0
1 273 275 0
1 273 258 0
1 -273 263 0
1 -383 259 0
1 -383 -386 0
1 -383 -281 0
1 -383 -269 0
1 -383 -374 0
1 -383 256 0
1 374 -268 0
1 -374 -259 0
1 374 240 0
1 -374 -275 0
1 -382 -387 0
1 382 -376 0
1 382 -388 0
1 -382 257 0
1 382 -259 0
1 -382 377 0
1 382 275 0
1 -249 -387 0
1 -249 389 0
1 -249 -376 0
1 -249 -386 0
1 -249 -149 0
1 -249 390 0
1 -249 256 0
1 -269 264 0
1 269 268 0
1 269 -391 0
1 -269 262 0
1 -269 377 0
1 -269 374 0
1 -269 260 0
1 269 263 0
1 269 270 0
1 268 -264 0
1 268 -376 0
1 268 -262 0
1 -268 -157 0
1 268 260 0
1 268 -270 0
1 281 -287 0
1 281 385 0
1 287 -264 0
1 -287 389 0
1 287 -383 0
1 -287 -391 0
1 287 392 0
1 -287 393 0
1 287 -171 0
1 287 281 0
1 -287 374 0
1 287 260 0
1 -385 294 0
1 -385 268 0
1 -385 -250 0
1 -385 -281 0
1 -385 -275 0
1 385 297 0
1 258 294 0
1 258 385 0
1 -258 394 0
1 258 -292 0
1 -258 -279 0
1 -258 281 0
1 258 297 0
1 -391 -287 0
1 391 268 0
1 391 273 0
1 -391 -246 0
1 -391 -395 0
1 391 281 0
1 -391 -269 0
1 -391 -396 0
1 -391 -397 0
1 260 391 0
1 260 -395 0
1 260 386 0
1 260 -398 0
1 260 -396 0
1 -279 -294 0
1 -279 -264 0
1 279 -265 0
1 -279 283 0
1 279 -385 0
1 279 -392 0
1 279 -393 0
1 279 -298 0
1 -279 171 0
1 -279 386 0
1 -279 276 0
1 -279 399 0
1 294 -387 0
1 -294 392 0
1 -294 279 0
1 294 -171 0
1 -294 266 0
1 294 289 0
1 292 -400 0
1 -292 385 0
1 292 -393 0
1 292 -395 0
1 -292 -297 0
1 297 -292 0
1 -297 393 0
1 -297 -276 0
1 -297 -258 0
1 297 272 0
1 393 301 0
1 393 -288 0
1 -393 -281 0
1 -393 302 0
1 -393 -297 0
1 -272 -301 0
1 -272 -292 0
1 -272 296 0
1 -272 -270 0
1 392 -287 0
1 -392 401 0
1 -392 262 0
1 -392 -402 0
1 392 396 0
1 392 297 0
1 -399 294 0
1 -399 401 0
1 399 394 0
1 399 292 0
1 -399 -279 0
1 399 402 0
1 -399 -263 0
1 399 -396 0
1 399 297 0
1 -288 -400 0
1 -288 286 0
1 -288 -403 0
1 -288 280 0
1 288 -277 0
1 288 187 0
1 -296 -400 0
1 296 -278 0
1 296 288 0
1 -296 -403 0
1 -296 276 0
1 -296 -277 0
1 296 -396 0
1 301 295 0
1 301 -404 0
1 301 -286 0
1 301 401 0
1 -301 -403 0
1 -301 280 0
1 -301 187 0
1 -301 272 0
1 -302 295 0
1 -302 -403 0
1 302 -280 0
1 280 -405 0
1 -280 406 0
1 -280 -299 0
1 -280 288 0
1 280 292 0
1 280 300 0
1 -280 -297 0
1 -400 -265 0
1 400 -405 0
1 -400 407 0
1 400 -296 0
1 -403 -408 0
1 403 288 0
1 403 -171 0
1 403 297 0
1 -282 -409 0
1 282 -301 0
1 282 -297 0
1 -299 -400 0
1 299 286 0
1 299 -408 0
1 -299 293 0
1 300 400 0
1 -300 295 0
1 300 299 0
1 300 286 0
1 -406 -295 0
1 406 409 0
1 406 404 0
1 -406 293 0
1 -406 -410 0
1 411 412 0
1 404 -413 0
1 -404 -278 0
1 -404 299 0
1 404 301 0
1 404 300 0
1 293 -406 0
1 -293 411 0
1 -293 302 0
1 295 -414 0
1 -295 406 0
1 295 -301 0
1 295 415 0
1 295 411 0
1 295 302 0
1 -413 405 0
1 -413 -404 0
1 -413 -416 0
1 413 410 0
1 -417 407 0
1 -418 414 0
1 418 -404 0
1 418 419 0
1 418 -410 0
1 420 -412 0
1 -420 -419 0
1 420 415 0
1 -410 418 0
1 410 -411 0
1 -419 413 0
1 419 -420 0
1 416 -418 0
1 416 412 0
1 416 -420 0
1 -416 411 0
1 412 -418 0
1 -412 406 0
1 -412 -411 0
1 -412 -416 0
1 324 -315 0
1 324 308 0
1 -324 313 0
1 -330 421 0
1 -330 311 0
1 330 313 0
1 -330 -324 0
1 330 -325 0
1 334 323 0
1 -334 315 0
1 -334 -223 0
1 -334 325 0
1 334 -422 0
1 -329 -315 0
1 -329 -334 0
1 421 304 0
1 -421 -330 0
1 421 -423 0
1 -421 331 0
1 421 -314 0
1 -421 324 0
1 -314 -330 0
1 314 -424 0
1 -314 -334 0
1 -422 425 0
1 -422 330 0
1 -422 312 0
1 -422 -324 0
1 -315 330 0
1 -331 321 0
1 -331 317 0
1 331 -320 0
1 -331 326 0
1 331 218 0
1 -331 325 0
1 331 328 0
1 328 323 0
1 -328 317 0
1 -328 -320 0
1 -328 -426 0
1 -328 -318 0
1 -423 421 0
1 423 323 0
1 -423 -426 0
1 -423 322 0
1 423 427 0
1 341 -428 0
1 341 -429 0
1 341 423 0
1 -341 322 0
1 -341 427 0
1 -341 327 0
1 -341 338 0
1 321 -311 0
1 321 430 0
1 321 -345 0
1 321 341 0
1 -322 -329 0
1 322 321 0
1 322 -431 0
1 -322 -335 0
1 322 334 0
1 -322 -346 0
1 -322 -337 0
1 322 -328 0
1 -323 310 0
1 -323 -331 0
1 -323 432 0
1 323 -341 0
1 426 431 0
1 426 -331 0
1 426 -308 0
1 -426 -334 0
1 -426 -433 0
1 -335 -321 0
1 -335 428 0
1 335 -229 0
1 335 199 0
1 335 332 0
1 -335 322 0
1 -335 202 0
1 -335 -215 0
1 -337 -321 0
1 337 -428 0
1 -337 -326 0
1 337 199 0
1 -337 -322 0
1 -337 327 0
1 -345 -434 0
1 345 336 0
1 345 322 0
1 -345 340 0
1 346 428 0
1 -346 -429 0
1 346 -434 0
1 -346 327 0
1 346 336 0
1 -346 -332 0
1 429 435 0
1 -429 -352 0
1 429 356 0
1 -429 -335 0
1 429 423 0
1 -429 436 0
1 -429 -327 0
1 -429 346 0
1 327 -352 0
1 327 356 0
1 327 335 0
1 327 -346 0
1 -428 -437 0
1 -428 423 0
1 428 -438 0
1 -428 346 0
1 -428 341 0
1 -427 -437 0
1 427 -345 0
1 -427 -423 0
1 -427 -432 0
1 427 -337 0
1 -356 -431 0
1 356 -434 0
1 356 -436 0
1 356 327 0
1 356 340 0
1 436 -429 0
1 436 -434 0
1 -436 336 0
1 436 333 0
1 -436 -236 0
1 -436 -215 0
1 352 439 0
1 352 222 0
1 352 243 0
1 -352 -347 0
1 -352 440 0
1 352 -340 0
1 352 441 0
1 -355 439 0
1 355 -352 0
1 -355 -434 0
1 -355 336 0
1 355 -344 0
1 355 -438 0
1 -336 -442 0
1 -336 -352 0
1 -336 -199 0
1 -336 -443 0
1 336 -363 0
1 -336 -444 0
1 -336 355 0
1 -340 -362 0
1 340 -355 0
1 340 -346 0
1 434 445 0
1 434 346 0
1 434 -440 0
1 -440 -345 0
1 440 -446 0
1 -440 436 0
1 442 -244 0
1 -442 -222 0
1 442 -435 0
1 442 230 0
1 -442 336 0
1 442 -344 0
1 -442 -350 0
1 -442 -447 0
1 350 439 0
1 -350 222 0
1 -350 342 0
1 -350 -336 0
1 -350 219 0
1 -350 340 0
1 -350 441 0
1 -362 -448 0
1 -362 344 0
1 -362 -447 0
1 -362 -353 0
1 -363 -354 0
1 -363 344 0
1 -363 -449 0
1 -363 447 0
1 363 -353 0
1 -363 -450 0
1 -447 -439 0
1 -447 352 0
1 447 -451 0
1 -447 -363 0
1 447 333 0
1 -447 -452 0
1 447 -372 0
1 447 -360 0
1 439 362 0
1 -439 453 0
1 439 451 0
1 -439 359 0
1 -439 -355 0
1 -439 -372 0
1 344 -445 0
1 344 -451 0
1 -344 -363 0
1 -344 350 0
1 344 441 0
1 -441 362 0
1 -441 -454 0
1 441 442 0
1 -441 215 0
1 -441 -344 0
1 441 350 0
1 441 -355 0
1 441 455 0
1 360 -354 0
1 360 351 0
1 360 -364 0
1 -360 359 0
1 -360 348 0
1 -359 439 0
1 -359 354 0
1 -359 443 0
1 359 -447 0
1 359 349 0
1 -359 360 0
1 -372 456 0
1 -372 -370 0
1 -372 457 0
1 372 261 0
1 370 -439 0
1 -370 351 0
1 -370 -456 0
1 370 361 0
1 -370 -364 0
1 370 -259 0
1 -370 458 0
1 370 -353 0
1 370 450 0
1 -370 372 0
1 450 459 0
1 450 384 0
1 450 368 0
1 450 219 0
1 -450 369 0
1 -450 -372 0
1 -351 342 0
1 -351 368 0
1 -351 -370 0
1 351 -359 0
1 351 363 0
1 351 -450 0
1 -351 380 0
1 351 -369 0
1 353 354 0
1 -353 -370 0
1 -353 -359 0
1 353 -347 0
1 -353 460 0
1 -353 461 0
1 -353 372 0
1 354 -362 0
1 354 462 0
1 354 -463 0
1 354 -370 0
1 354 -359 0
1 354 461 0
1 354 372 0
1 -369 -373 0
1 369 -351 0
1 369 -456 0
1 369 -368 0
1 -368 364 0
1 368 -361 0
1 368 369 0
1 -368 -457 0
1 -380 373 0
1 -380 351 0
1 380 -384 0
1 380 464 0
1 -380 371 0
1 -380 465 0
1 380 450 0
1 380 -466 0
1 -384 371 0
1 -384 -366 0
1 -384 -464 0
1 384 367 0
1 -457 384 0
1 -457 -368 0
1 -361 384 0
1 -361 -370 0
1 361 380 0
1 -464 -459 0
1 464 -384 0
1 464 -467 0
1 464 461 0
1 464 380 0
1 -464 369 0
1 464 -372 0
1 456 -459 0
1 -456 384 0
1 456 230 0
1 456 368 0
1 -456 -468 0
1 -456 370 0
1 456 461 0
1 -456 -369 0
1 456 372 0
1 377 373 0
1 -377 376 0
1 377 -465 0
1 -377 -378 0
1 377 -249 0
1 -377 -461 0
1 -376 -375 0
1 376 268 0
1 376 -382 0
1 -376 371 0
1 376 -378 0
1 -376 249 0
1 376 -367 0
1 469 -389 0
1 -469 -381 0
1 469 470 0
1 -469 -457 0
1 389 -287 0
1 -389 -471 0
1 389 382 0
1 389 -371 0
1 389 -381 0
1 389 249 0
1 389 -457 0
1 389 -472 0
1 -367 473 0
1 -367 376 0
1 -367 384 0
1 -367 -395 0
1 -367 -386 0
1 367 469 0
1 367 -377 0
1 465 -387 0
1 465 -389 0
1 -465 -376 0
1 465 -367 0
1 465 -358 0
1 -465 377 0
1 465 474 0
1 472 -475 0
1 -472 -376 0
1 472 -371 0
1 472 -474 0
1 -472 476 0
1 -371 477 0
1 371 -389 0
1 371 376 0
1 -371 -478 0
1 -371 479 0
1 371 -480 0
1 -371 472 0
1 -371 474 0
1 386 -387 0
1 386 -379 0
1 -386 383 0
1 386 -465 0
1 386 -480 0
1 386 249 0
1 -386 -374 0
1 -387 -294 0
1 -387 -379 0
1 387 -382 0
1 387 -381 0
1 395 -388 0
1 -395 481 0
1 395 -381 0
1 395 -390 0
1 395 482 0
1 397 475 0
1 397 -481 0
1 397 465 0
1 -397 -482 0
1 397 297 0
1 471 387 0
1 471 -375 0
1 -471 -483 0
1 -471 484 0
1 471 -395 0
1 471 -469 0
1 471 -485 0
1 -470 -471 0
1 470 386 0
1 470 396 0
1 -470 397 0
1 379 -389 0
1 -379 -486 0
1 379 395 0
1 -379 469 0
1 -379 -487 0
1 379 474 0
1 379 -397 0
1 381 -366 0
1 -381 395 0
1 381 -487 0
1 -381 474 0
1 -394 471 0
1 394 288 0
1 -394 486 0
1 394 -390 0
1 394 -482 0
1 -394 260 0
1 -396 388 0
1 -396 -481 0
1 -396 392 0
1 -396 -470 0
1 -396 -482 0
1 401 -388 0
1 -401 -392 0
1 -401 -390 0
1 -401 402 0
1 -401 -399 0
1 402 -398 0
1 -402 488 0
1 -402 -401 0
1 -402 -470 0
1 -402 390 0
1 -402 -487 0
1 481 -409 0
1 481 -383 0
1 -481 -408 0
1 481 -482 0
1 -481 402 0
1 481 397 0
1 -482 395 0
1 482 489 0
1 -482 374 0
1 -482 -490 0
1 -482 402 0
1 482 397 0
1 388 491 0
1 388 484 0
1 388 -394 0
1 -388 -395 0
1 388 -402 0
1 390 388 0
1 390 -484 0
1 -390 401 0
1 390 492 0
1 390 485 0
1 -390 -396 0
1 390 397 0
1 -408 282 0
1 -408 481 0
1 408 493 0
1 408 392 0
1 408 403 0
1 408 398 0
1 -408 -399 0
1 -408 -272 0
1 -490 -282 0
1 490 -481 0
1 -490 408 0
1 -490 -482 0
1 -490 -403 0
1 -490 -494 0
1 490 399 0
1 -409 406 0
1 409 -481 0
1 -409 -403 0
1 -409 489 0
1 409 -398 0
1 -409 -494 0
1 489 409 0
1 489 -482 0
1 489 495 0
1 -489 403 0
1 -489 496 0
1 489 -398 0
1 -493 415 0
1 493 -490 0
1 -494 414 0
1 -494 405 0
1 494 409 0
1 494 -258 0
1 -494 408 0
1 494 -401 0
1 494 493 0
1 494 -415 0
1 494 490 0
1 488 -497 0
1 -488 408 0
1 488 -401 0
1 488 -492 0
1 -488 -490 0
1 488 398 0
1 398 498 0
1 398 -409 0
1 398 -401 0
1 398 490 0
1 398 402 0
1 -398 260 0
1 405 -282 0
1 -405 -400 0
1 -405 403 0
1 -405 499 0
1 -407 -282 0
1 407 400 0
1 -407 -295 0
1 -407 405 0
1 -407 493 0
1 407 495 0
1 -407 -417 0
1 -407 293 0
1 407 500 0
1 414 418 0
1 -414 -498 0
1 414 -295 0
1 -414 -493 0
1 414 495 0
1 -414 293 0
1 414 499 0
1 415 414 0
1 415 -295 0
1 -415 495 0
1 -415 501 0
1 415 420 0
1 415 499 0
1 501 -405 0
1 -501 409 0
1 -501 393 0
1 501 415 0
1 501 489 0
1 -500 414 0
1 -500 -501 0
1 500 407 0
1 -495 392 0
1 -495 499 0
1 499 405 0
1 499 -399 0
1 431 425 0
1 431 321 0
1 431 -432 0
1 -432 -502 0
1 432 -321 0
1 432 428 0
1 -432 503 0
1 432 -424 0
1 432 -426 0
1 432 -427 0
1 437 502 0
1 -437 -352 0
1 437 -428 0
1 -437 -427 0
1 438 -425 0
1 438 -502 0
1 -438 433 0
1 -438 -355 0
1 -438 504 0
1 -502 448 0
1 -502 431 0
1 -502 -449 0
1 -502 424 0
1 -502 446 0
1 -502 438 0
1 -424 448 0
1 424 -431 0
1 424 -449 0
1 -424 -505 0
1 424 -438 0
1 425 -437 0
1 425 431 0
1 -425 503 0
1 425 432 0
1 425 -422 0
1 -503 -432 0
1 435 -442 0
1 446 435 0
1 446 430 0
1 446 504 0
1 446 -327 0
1 -446 -440 0
1 448 502 0
1 -448 434 0
1 448 433 0
1 448 506 0
1 448 -440 0
1 -449 448 0
1 449 502 0
1 -449 -507 0
1 449 434 0
1 449 -363 0
1 -449 433 0
1 449 440 0
1 430 -445 0
1 -430 448 0
1 -430 -435 0
1 -430 437 0
1 430 458 0
1 -430 -449 0
1 430 438 0
1 -504 -508 0
1 509 -323 0
1 -509 510 0
1 -509 -508 0
1 -509 -446 0
1 -433 -448 0
1 -433 -435 0
1 -433 509 0
1 -433 426 0
1 433 -446 0
1 445 507 0
1 445 344 0
1 -445 504 0
1 -445 -440 0
1 445 340 0
1 443 -507 0
1 -443 340 0
1 -455 -444 0
1 455 -344 0
1 455 511 0
1 455 -506 0
1 455 512 0
1 -455 441 0
1 -458 507 0
1 458 513 0
1 -458 514 0
1 -458 -370 0
1 458 -511 0
1 458 -344 0
1 -458 -506 0
1 -458 515 0
1 -458 -441 0
1 514 -445 0
1 -514 -463 0
1 514 451 0
1 -514 -466 0
1 -514 -516 0
1 -515 463 0
1 515 443 0
1 -515 455 0
1 -507 445 0
1 -507 448 0
1 507 -517 0
1 507 -508 0
1 507 443 0
1 507 449 0
1 507 -518 0
1 -506 -448 0
1 -506 -519 0
1 -506 507 0
1 -506 -449 0
1 506 -520 0
1 506 -518 0
1 506 -521 0
1 506 455 0
1 -516 -439 0
1 -516 354 0
1 -516 514 0
1 -516 -444 0
1 516 353 0
1 516 -369 0
1 451 -439 0
1 -451 354 0
1 -451 -368 0
1 -451 -514 0
1 451 -508 0
1 -451 -344 0
1 451 353 0
1 451 -512 0
1 -466 514 0
1 -466 -511 0
1 -466 -452 0
1 466 -353 0
1 466 -380 0
1 -466 -513 0
1 463 453 0
1 463 -384 0
1 -463 522 0
1 -463 -514 0
1 -463 511 0
1 -463 444 0
1 -463 353 0
1 -463 512 0
1 463 513 0
1 -444 523 0
1 444 -463 0
1 444 -458 0
1 -444 524 0
1 -444 461 0
1 -513 451 0
1 -513 -525 0
1 -513 -524 0
1 513 455 0
1 513 -526 0
1 511 527 0
1 -511 451 0
1 -511 -458 0
1 -511 -525 0
1 511 520 0
1 511 516 0
1 511 512 0
1 -512 -463 0
1 -512 451 0
1 -512 440 0
1 -512 525 0
1 512 528 0
1 -461 -453 0
1 461 459 0
1 -461 -456 0
1 461 452 0
1 -461 -513 0
1 459 -454 0
1 459 453 0
1 459 -456 0
1 -524 456 0
1 524 -529 0
1 -524 513 0
1 -523 -454 0
1 -523 -453 0
1 523 530 0
1 523 -456 0
1 523 444 0
1 523 -524 0
1 523 -464 0
1 452 477 0
1 452 -453 0
1 452 461 0
1 -452 466 0
1 -453 439 0
1 453 523 0
1 -453 459 0
1 -453 -463 0
1 453 -531 0
1 -453 -480 0
1 -453 466 0
1 -453 532 0
1 -533 -527 0
1 -533 -531 0
1 533 -344 0
1 533 534 0
1 533 -466 0
1 454 459 0
1 454 463 0
1 454 -533 0
1 454 524 0
1 454 466 0
1 -454 532 0
1 480 477 0
1 -480 453 0
1 -480 -386 0
1 -480 -460 0
1 477 -535 0
1 477 361 0
1 -477 371 0
1 -477 480 0
1 477 -452 0
1 -477 457 0
1 -479 -475 0
1 479 453 0
1 -479 -536 0
1 -479 -395 0
1 479 537 0
1 479 -467 0
1 -479 472 0
1 475 -538 0
1 475 -371 0
1 -475 460 0
1 475 537 0
1 475 -467 0
1 475 397 0
1 -537 -475 0
1 537 539 0
1 -537 479 0
1 -537 -480 0
1 537 540 0
1 537 487 0
1 -535 -477 0
1 -535 351 0
1 535 -541 0
1 535 479 0
1 535 -524 0
1 535 537 0
1 -535 487 0
1 -460 462 0
1 460 -542 0
1 -460 543 0
1 460 531 0
1 460 -479 0
1 460 524 0
1 -462 475 0
1 -462 -354 0
1 462 523 0
1 -462 543 0
1 462 -480 0
1 -462 -544 0
1 -486 -379 0
1 486 -535 0
1 -486 -536 0
1 486 -371 0
1 -486 -394 0
1 -486 465 0
1 -486 381 0
1 486 -472 0
1 -486 537 0
1 -486 -467 0
1 486 367 0
1 -474 396 0
1 474 -472 0
1 474 -532 0
1 -474 -367 0
1 539 468 0
1 -539 401 0
1 -539 -536 0
1 539 543 0
1 -539 -478 0
1 539 545 0
1 539 -381 0
1 -539 -537 0
1 -539 487 0
1 -487 468 0
1 487 539 0
1 487 -478 0
1 -487 -546 0
1 487 -476 0
1 546 547 0
1 546 548 0
1 546 -485 0
1 -546 487 0
1 -536 -547 0
1 536 484 0
1 536 -361 0
1 536 -539 0
1 467 547 0
1 -467 542 0
1 -467 -479 0
1 -467 -487 0
1 467 -474 0
1 468 -547 0
1 -468 467 0
1 -468 -479 0
1 -468 549 0
1 468 -487 0
1 -484 -379 0
1 -484 388 0
1 -484 408 0
1 484 536 0
1 484 -478 0
1 -484 381 0
1 484 -546 0
1 -485 473 0
1 -485 -388 0
1 -485 -484 0
1 -485 -536 0
1 485 -478 0
1 -485 390 0
1 485 546 0
1 -485 476 0
1 -491 -473 0
1 -491 -550 0
1 -491 388 0
1 491 545 0
1 491 551 0
1 -491 496 0
1 491 -476 0
1 -496 473 0
1 496 388 0
1 496 -390 0
1 -496 -476 0
1 473 498 0
1 473 -497 0
1 -473 -552 0
1 473 492 0
1 -473 -487 0
1 -545 -473 0
1 545 -539 0
1 545 465 0
1 545 496 0
1 476 -539 0
1 -476 -478 0
1 -476 -553 0
1 476 -496 0
1 -476 487 0
1 478 -554 0
1 478 547 0
1 478 491 0
1 478 -484 0
1 478 -539 0
1 478 -485 0
1 497 -550 0
1 -497 -483 0
1 497 388 0
1 -497 -488 0
1 497 -545 0
1 497 -551 0
1 497 555 0
1 -492 -473 0
1 -492 -550 0
1 -492 -483 0
1 492 -545 0
1 492 407 0
1 498 545 0
1 498 551 0
1 498 -555 0
1 552 -473 0
1 -552 -551 0
1 -552 415 0
1 -552 555 0
1 -552 553 0
1 552 398 0
1 483 471 0
1 483 -498 0
1 -483 497 0
1 483 552 0
1 -483 -492 0
1 -483 496 0
1 -555 -483 0
1 555 -491 0
1 -555 470 0
1 555 -496 0
1 -550 491 0
1 550 552 0
1 -551 -497 0
1 551 -496 0
1 521 556 0
1 521 509 0
1 -521 507 0
1 521 -508 0
1 521 -506 0
1 508 -557 0
1 508 509 0
1 -508 430 0
1 -508 507 0
1 -518 -510 0
1 518 -507 0
1 -518 522 0
1 518 505 0
1 518 -558 0
1 -518 -559 0
1 522 557 0
1 -522 510 0
1 -522 560 0
1 522 -505 0
1 -557 -519 0
1 557 505 0
1 557 -518 0
1 -557 -521 0
1 505 557 0
1 -505 -561 0
1 556 425 0
1 556 562 0
1 -556 -560 0
1 -560 522 0
1 560 -508 0
1 -560 503 0
1 -560 563 0
1 520 510 0
1 520 -507 0
1 520 506 0
1 520 512 0
1 -519 -557 0
1 -519 459 0
1 -519 -564 0
1 -519 -505 0
1 -519 558 0
1 -519 559 0
1 519 515 0
1 -519 512 0
1 529 557 0
1 -529 -530 0
1 529 510 0
1 -529 -564 0
1 529 -558 0
1 529 524 0
1 529 565 0
1 530 557 0
1 -530 -523 0
1 530 -564 0
1 530 -517 0
1 530 -566 0
1 530 -558 0
1 564 527 0
1 564 530 0
1 564 567 0
1 559 538 0
1 559 530 0
1 559 -519 0
1 559 -564 0
1 -559 -568 0
1 -559 518 0
1 510 -530 0
1 -510 509 0
1 510 519 0
1 510 -568 0
1 -558 522 0
1 -558 -568 0
1 -558 -433 0
1 -558 529 0
1 -558 -569 0
1 -558 -570 0
1 525 454 0
1 -525 -566 0
1 525 -511 0
1 525 -533 0
1 -525 512 0
1 -527 454 0
1 527 -517 0
1 -527 444 0
1 527 -533 0
1 -527 -559 0
1 527 -571 0
1 -527 565 0
1 -572 -454 0
1 572 538 0
1 -572 -564 0
1 572 517 0
1 572 573 0
1 -572 -574 0
1 -572 -479 0
1 -572 559 0
1 -572 -565 0
1 -572 526 0
1 538 -454 0
1 -538 573 0
1 538 -574 0
1 538 572 0
1 566 538 0
1 -566 -514 0
1 -566 -575 0
1 -566 -543 0
1 -566 -531 0
1 566 -572 0
1 -566 525 0
1 566 529 0
1 -566 565 0
1 566 544 0
1 -565 566 0
1 565 -575 0
1 -565 -576 0
1 565 -515 0
1 -565 -532 0
1 -517 -530 0
1 -517 507 0
1 517 -525 0
1 -517 529 0
1 517 577 0
1 517 -570 0
1 571 517 0
1 571 -578 0
1 -571 568 0
1 571 572 0
1 571 506 0
1 571 579 0
1 -571 -577 0
1 571 -570 0
1 -531 453 0
1 -531 452 0
1 531 -565 0
1 -531 -528 0
1 -532 528 0
1 532 -526 0
1 -532 -460 0
1 532 565 0
1 532 -474 0
1 532 -570 0
1 543 580 0
1 543 573 0
1 -543 574 0
1 543 534 0
1 -543 -565 0
1 543 544 0
1 543 -526 0
1 -544 581 0
1 -544 543 0
1 544 574 0
1 -574 -582 0
1 -574 543 0
1 574 -444 0
1 -574 572 0
1 -574 549 0
1 -574 532 0
1 -526 538 0
1 -526 -583 0
1 526 -513 0
1 -526 542 0
1 -526 -543 0
1 -526 -531 0
1 -526 574 0
1 -526 -572 0
1 -526 540 0
1 -526 -532 0
1 -573 582 0
1 573 543 0
1 -573 531 0
1 573 -572 0
1 573 584 0
1 573 585 0
1 573 -579 0
1 528 531 0
1 -528 -584 0
1 528 -532 0
1 542 468 0
1 -542 -467 0
1 -540 581 0
1 540 -534 0
1 540 460 0
1 -540 -485 0
1 583 491 0
1 -583 -468 0
1 583 574 0
1 -583 -534 0
1 583 586 0
1 -583 587 0
1 583 467 0
1 549 580 0
1 549 -588 0
1 -549 574 0
1 549 -587 0
1 -549 -585 0
1 549 -526 0
1 586 -547 0
1 586 -583 0
1 586 544 0
1 580 547 0
1 -580 543 0
1 -580 586 0
1 -580 549 0
1 -580 -544 0
1 -534 -542 0
1 -534 -533 0
1 534 589 0
1 -581 454 0
1 -581 -543 0
1 547 580 0
1 -547 -588 0
1 -547 -497 0
1 -547 541 0
1 -547 -468 0
1 547 536 0
1 -547 478 0
1 -547 587 0
1 -547 -467 0
1 547 -476 0
1 -548 -580 0
1 548 588 0
1 548 547 0
1 548 -584 0
1 -548 546 0
1 -554 498 0
1 -554 590 0
1 554 -478 0
1 -554 -553 0
1 -553 589 0
1 553 591 0
1 553 476 0
1 591 -547 0
1 -591 541 0
1 591 583 0
1 541 554 0
1 541 591 0
1 -541 548 0
1 -541 549 0
1 587 -554 0
1 -587 -583 0
1 -587 553 0
1 -587 460 0
1 -587 548 0
1 588 462 0
1 -588 -554 0
1 588 547 0
1 -588 -583 0
1 -588 553 0
1 -588 548 0
1 -568 562 0
1 -568 564 0
1 568 -517 0
1 568 563 0
1 -568 -561 0
1 570 510 0
1 570 564 0
1 -570 -517 0
1 -570 568 0
1 570 561 0
1 570 571 0
1 -578 -592 0
1 -578 567 0
1 -578 517 0
1 578 561 0
1 -578 -593 0
1 578 -571 0
1 -578 -577 0
1 577 562 0
1 577 -578 0
1 577 561 0
1 577 593 0
1 -594 568 0
1 594 585 0
1 594 577 0
1 561 575 0
1 561 -568 0
1 -561 585 0
1 561 -579 0
1 562 -568 0
1 -562 563 0
1 -563 578 0
1 -563 560 0
1 -575 592 0
1 -575 -566 0
1 -575 -573 0
1 575 -561 0
1 575 -569 0
1 -575 -593 0
1 575 528 0
1 -579 -567 0
1 579 -561 0
1 -579 571 0
1 579 540 0
1 595 -583 0
1 595 596 0
1 595 -569 0
1 595 593 0
1 -595 -528 0
1 -585 -567 0
1 585 569 0
1 585 -549 0
1 -585 -597 0
1 -585 576 0
1 -567 -595 0
1 567 593 0
1 -567 -577 0
1 -593 -595 0
1 593 -575 0
1 -593 578 0
1 -593 -559 0
1 -593 585 0
1 592 595 0
1 569 592 0
1 569 577 0
1 582 581 0
1 582 -567 0
1 582 574 0
1 582 534 0
1 582 -597 0
1 -582 -526 0
1 584 596 0
1 -584 -573 0
1 584 526 0
1 590 -581 0
1 -590 576 0
1 -589 596 0
1 589 -534 0
1 -589 -553 0
1 -589 593 0
1 -589 -597 0
1 -589 576 0
1 596 590 0
1 -596 -582 0
1 596 -595 0
1 596 -566 0
1 -596 -584 0
1 596 576 0
1 576 -590 0
1 576 582 0
1 576 -596 0
1 598 582 0
1 598 -595 0
1 -598 585 0
1 597 584 0
1 -597 571 0
1 -597 585 0
